0 3823
1 3823
2 3823
3 3823
4 3756
5 3756
6 3698
7 3634
8 3630
9 3630
10 3405
11 3390
12 3390
13 3390
14 3390
15 3390
16 3385
17 3317
18 3317
19 3317
20 3317
21 3317
22 3317
23 3317
24 3317
25 3317
26 3310
27 3310
28 3310
29 3310
30 3310
31 3310
32 3310
33 3310
34 3236
35 3236
36 3160
37 3160
38 3160
39 3160
40 3160
41 3160
42 3160
43 3160
44 3160
45 3160
46 3160
47 3160
48 3160
49 3160
50 2958
51 2958
52 2958
53 2958
54 2915
55 2915
56 2915
57 2915
58 2915
59 2915
60 2915
61 2915
62 2915
63 2915
64 2915
65 2915
66 2915
67 2915
68 2915
69 2915
70 2915
71 2915
72 2915
73 2915
74 2915
75 2915
76 2915
77 2915
78 2915
79 2915
80 2915
81 2915
82 2915
83 2915
84 2915
85 2915
86 2915
87 2915
88 2915
89 2915
90 2915
91 2915
92 2915
93 2915
94 2915
95 2915
96 2915
97 2915
98 2915
99 2915
100 2808
101 2808
102 2808
103 2808
104 2795
105 2795
106 2795
107 2795
108 2795
109 2795
110 2794
111 2794
112 2743
113 2743
114 2743
115 2644
116 2644
117 2644
118 2644
119 2644
120 2644
121 2644
122 2644
123 2644
124 2644
125 2644
126 2644
127 2550
128 2550
129 2540
130 2540
131 2540
132 2540
133 2540
134 2540
135 2540
136 2540
137 2540
138 2540
139 2540
140 2540
141 2540
142 2501
143 2501
144 2501
145 2501
146 2501
147 2501
148 2501
149 2501
150 2501
151 2501
152 2501
153 2501
154 2501
155 2501
156 2501
157 2501
158 2501
159 2501
160 2501
161 2501
162 2501
163 2501
164 2501
165 2501
166 2501
167 2501
168 2501
169 2501
170 2501
171 2501
172 2501
173 2501
174 2501
175 2501
176 2501
177 2501
178 2501
179 2501
180 2501
181 2501
182 2501
183 2501
184 2501
185 2501
186 2501
187 2501
188 2501
189 2501
190 2501
191 2501
192 2501
193 2501
194 2501
195 2501
196 2501
197 2501
198 2501
199 2501
200 2501
201 2501
202 2501
203 2501
204 2501
205 2501
206 2501
207 2501
208 2501
209 2501
210 2501
211 2501
212 2501
213 2501
214 2501
215 2501
216 2501
217 2501
218 2501
219 2501
220 2501
221 2501
222 2501
223 2501
224 2501
225 2501
226 2501
227 2501
228 2501
229 2501
230 2501
231 2501
232 2501
233 2501
234 2501
235 2501
236 2501
237 2501
238 2501
239 2501
240 2501
241 2501
242 2501
243 2501
244 2499
245 2499
246 2499
247 2499
248 2499
249 2499
250 2499
251 2442
252 2442
253 2442
254 2442
255 2442
256 2442
257 2442
258 2442
259 2442
260 2442
261 2442
262 2442
263 2442
264 2442
265 2442
266 2442
267 2442
268 2442
269 2442
270 2442
271 2442
272 2442
273 2442
274 2442
275 2442
276 2442
277 2442
278 2442
279 2442
280 2442
281 2442
282 2442
283 2442
284 2442
285 2442
286 2442
287 2442
288 2442
289 2442
290 2442
291 2442
292 2442
293 2442
294 2442
295 2442
296 2442
297 2442
298 2442
299 2442
300 2442
301 2442
302 2442
303 2442
304 2442
305 2442
306 2442
307 2442
308 2442
309 2442
310 2442
311 2442
312 2442
313 2442
314 2442
315 2442
316 2442
317 2442
318 2420
319 2420
320 2420
321 2420
322 2420
323 2420
324 2420
325 2410
326 2410
327 2380
328 2380
329 2380
330 2380
331 2366
332 2366
333 2366
334 2366
335 2366
336 2366
337 2366
338 2366
339 2366
340 2366
341 2366
342 2366
343 2366
344 2366
345 2366
346 2366
347 2366
348 2366
349 2366
350 2366
351 2366
352 2366
353 2366
354 2366
355 2366
356 2366
357 2366
358 2366
359 2366
360 2366
361 2366
362 2366
363 2366
364 2366
365 2366
366 2366
367 2366
368 2366
369 2366
370 2366
371 2366
372 2366
373 2366
374 2366
375 2366
376 2366
377 2366
378 2366
379 2366
380 2366
381 2366
382 2347
383 2347
384 2347
385 2347
386 2347
387 2347
388 2347
389 2323
390 2323
391 2323
392 2323
393 2323
394 2323
395 2323
396 2323
397 2323
398 2323
399 2269
400 2269
401 2269
402 2269
403 2269
404 2269
405 2204
406 2204
407 2204
408 2204
409 2204
410 2166
411 2166
412 2166
413 2166
414 2166
415 2166
416 2166
417 2166
418 2166
419 2166
420 2166
421 2166
422 2166
423 2166
424 2166
425 2166
426 2166
427 2166
428 2166
429 2160
430 2160
431 2160
432 2160
433 2160
434 2160
435 2157
436 2157
437 2157
438 2157
439 2157
440 2157
441 2157
442 2157
443 2157
444 2157
445 2157
446 2157
447 2157
448 2157
449 2157
450 2157
451 2157
452 2152
453 2152
454 2152
455 2152
456 2152
457 2152
458 2136
459 2136
460 2136
461 2136
462 2136
463 2136
464 2136
465 2136
466 2136
467 2136
468 2136
469 2136
470 2136
471 2136
472 2136
473 2136
474 2136
475 2136
476 2136
477 2136
478 2136
479 2136
480 2136
481 2136
482 2136
483 2136
484 2136
485 2136
486 2136
487 2136
488 2136
489 2136
490 2136
491 2136
492 2136
493 2136
494 2136
495 2136
496 2136
497 2136
498 2136
499 2136
500 2136
501 2136
502 2136
503 2136
504 2136
505 2136
506 2136
507 2136
508 2136
509 2136
510 2136
511 2136
512 2136
513 2136
514 2136
515 2136
516 2136
517 2136
518 2136
519 2136
520 2136
521 2136
522 2136
523 2136
524 2136
525 2136
526 2136
527 2136
528 2136
529 2136
530 2136
531 2136
532 2106
533 2106
534 2106
535 2106
536 2106
537 2106
538 2106
539 2106
540 2106
541 2106
542 2106
543 2106
544 2106
545 2106
546 2106
547 2106
548 2106
549 2106
550 2106
551 2095
552 2095
553 2095
554 2095
555 2095
556 2095
557 2095
558 2095
559 2095
560 2095
561 2095
562 2095
563 2095
564 2095
565 2095
566 2095
567 2095
568 2095
569 2095
570 2095
571 2095
572 2095
573 2095
574 2095
575 2095
576 2095
577 2095
578 2095
579 2095
580 2095
581 2095
582 2095
583 2095
584 2095
585 2095
586 2095
587 2095
588 2095
589 2095
590 2095
591 2095
592 2095
593 2095
594 2073
595 2073
596 2073
597 2073
598 2073
599 2073
600 2073
601 2073
602 2073
603 2073
604 2073
605 2073
606 2073
607 2073
608 2073
609 2073
610 2073
611 2073
612 2073
613 2073
614 2073
615 2073
616 2073
617 2073
618 2073
619 2073
620 2073
621 2073
622 2073
623 2073
624 2073
625 2073
626 2073
627 2073
628 2073
629 2073
630 2073
631 2073
632 2073
633 2073
634 2073
635 2073
636 2073
637 2073
638 2073
639 2073
640 2073
641 2073
642 2073
643 2073
644 2073
645 2073
646 2073
647 2073
648 2073
649 2073
650 2073
651 2073
652 2073
653 2073
654 2073
655 2073
656 2073
657 2073
658 2073
659 2073
660 2073
661 2073
662 2073
663 2073
664 2073
665 2073
666 2073
667 2073
668 2073
669 2073
670 2073
671 2073
672 2073
673 2073
674 2073
675 2073
676 2073
677 2073
678 2073
679 2073
680 2054
681 2054
682 2018
683 2018
684 2018
685 2018
686 2018
687 2018
688 2018
689 2018
690 2018
691 2018
692 2018
693 2018
694 2018
695 2018
696 2018
697 2018
698 2018
699 2018
700 2018
701 2018
702 2018
703 2018
704 2018
705 2018
706 2018
707 2018
708 2018
709 2018
710 2018
711 2018
712 2018
713 2018
714 2018
715 2018
716 2018
717 2018
718 2018
719 2018
720 2018
721 2018
722 2018
723 2018
724 2018
725 2018
726 2018
727 2018
728 2018
729 2018
730 2018
731 2018
732 2018
733 2018
734 2018
735 2018
736 2018
737 2018
738 2018
739 2018
740 2018
741 2018
742 2018
743 2018
744 2018
745 2018
746 2018
747 2018
748 2018
749 2018
750 2018
751 2018
752 2018
753 2018
754 2018
755 2018
756 2018
757 2018
758 2018
759 2018
760 2018
761 2018
762 2018
763 2018
764 2018
765 2018
766 2018
767 2018
768 2018
769 2018
770 2018
771 2018
772 2018
773 2018
774 2018
775 2018
776 2018
777 2018
778 2018
779 2018
780 2018
781 2018
782 2018
783 2018
784 2018
785 2018
786 2018
787 2018
788 2018
789 2018
790 2018
791 2018
792 2018
793 2018
794 2018
795 2018
796 2018
797 2018
798 2018
799 2018
800 2018
801 2018
802 2018
803 2018
804 2018
805 2018
806 2018
807 2018
808 2018
809 2018
810 2018
811 2018
812 2018
813 2018
814 2018
815 2018
816 2009
817 2009
818 2009
819 2009
820 2009
821 2009
822 2009
823 2009
824 2009
825 2009
826 2009
827 2009
828 2009
829 2009
830 2009
831 2009
832 2009
833 2009
834 2009
835 2009
836 2009
837 2009
838 2009
839 2009
840 2009
841 2009
842 2009
843 2009
844 2009
845 2009
846 2009
847 2009
848 2009
849 2009
850 2009
851 2009
852 2009
853 2009
854 2009
855 2009
856 2009
857 2009
858 2009
859 1997
860 1997
861 1997
862 1997
863 1997
864 1997
865 1997
866 1997
867 1997
868 1997
869 1997
870 1997
871 1997
872 1997
873 1997
874 1997
875 1997
876 1997
877 1997
878 1997
879 1997
880 1997
881 1997
882 1997
883 1997
884 1997
885 1997
886 1997
887 1997
888 1997
889 1997
890 1997
891 1997
892 1997
893 1997
894 1997
895 1997
896 1997
897 1997
898 1997
899 1997
900 1997
901 1997
902 1997
903 1997
904 1997
905 1997
906 1997
907 1997
908 1997
909 1997
910 1997
911 1997
912 1997
913 1945
914 1945
915 1945
916 1945
917 1945
918 1945
919 1944
920 1921
921 1921
922 1921
923 1921
924 1915
925 1915
926 1915
927 1915
928 1915
929 1915
930 1915
931 1915
932 1915
933 1915
934 1915
935 1915
936 1915
937 1915
938 1915
939 1915
940 1915
941 1915
942 1915
943 1915
944 1915
945 1915
946 1915
947 1915
948 1915
949 1915
950 1915
951 1915
952 1915
953 1915
954 1915
955 1915
956 1915
957 1915
958 1915
959 1915
960 1915
961 1915
962 1915
963 1915
964 1915
965 1915
966 1915
967 1915
968 1915
969 1915
970 1915
971 1915
972 1915
973 1915
974 1915
975 1915
976 1915
977 1915
978 1915
979 1915
980 1903
981 1903
982 1903
983 1903
984 1903
985 1903
986 1903
987 1903
988 1903
989 1903
990 1903
991 1903
992 1903
993 1903
994 1903
995 1903
996 1903
997 1903
998 1903
999 1903
Best: [[5,11,36,25],
       [8,20,35,3,10,29,6,4,21],
       [15,14,33,31,16],
       [17,26,28,12,13,22,23,24,27,34,2,19],
       [30,9,32,18,7,37]], fitness: 1903
